5
25
0 36000
9900 17100
6120 13320
5760 12960
3720 10920
17400 24600
16860 24060
24720 31920
2520 9720
5760 12960
18240 25440
13260 20460
8220 15420
24000 31200
8820 16020
28080 35280
11460 18660
22800 30000
23220 30420
17520 24720
10260 17460
16860 24060
19020 26220
16800 24000
1680 8880
24240 31440